Mg Si O 
 1.0000000000000000
     5.0091686039143637    0.0000000000000000    0.0000000000000000
     0.0000000000000000    7.0167574856113131    0.0000000000000000
     0.0000000000000000    0.0000000000000000    4.8569204237451657
 Mg  Si  O  
   4   4  12
Direct
  0.0552857178307629  0.2500000000000000  0.0143668094414770
  0.9447142821692371  0.7500000000000000  0.9856331905585231
  0.4447142821692371  0.7500000000000000  0.5143668094414771
  0.5552857178307630  0.2500000000000000  0.4856331905585229
  0.5000000000000000  0.5000000000000000  0.0000000000000000
  0.0000000000000000  0.5000000000000000  0.5000000000000000
  0.5000000000000000  0.0000000000000000  0.0000000000000000
  0.0000000000000000  0.0000000000000000  0.5000000000000000
  0.9653216760263318  0.2500000000000000  0.6027123008345456
  0.0346783239736682  0.7500000000000000  0.3972876991654544
  0.5346783239736683  0.7500000000000000  0.1027123008345455
  0.4653216760263317  0.2500000000000000  0.8972876991654543
  0.7023113331888103  0.5531742256907106  0.6971871238208248
  0.2976886668111898  0.4468257743092892  0.3028128761791753
  0.7976886668111898  0.4468257743092892  0.1971871238208248
  0.2023113331888103  0.5531742256907106  0.8028128761791751
  0.2976886668111898  0.0531742256907107  0.3028128761791753
  0.7023113331888103  0.9468257743092893  0.6971871238208248
  0.2023113331888103  0.9468257743092893  0.8028128761791751
  0.7976886668111898  0.0531742256907107  0.1971871238208248

